c strEdges: 189  randomEdges: 441 
c degrees:  2  3 
c girth: 10 max: 8.032766  
c Hgirth mixed MAXCUT instance
c generated from an undirected graph
c to solve unweighted MaxCut
p cnf 140 1260
45 19 0
-45 -19 0
45 117 0
-45 -117 0
43 51 0
-43 -51 0
43 108 0
-43 -108 0
50 47 0
-50 -47 0
50 44 0
-50 -44 0
74 10 0
-74 -10 0
74 15 0
-74 -15 0
74 87 0
-74 -87 0
2 15 0
-2 -15 0
2 30 0
-2 -30 0
2 51 0
-2 -51 0
112 11 0
-112 -11 0
112 5 0
-112 -5 0
112 111 0
-112 -111 0
80 44 0
-80 -44 0
80 20 0
-80 -20 0
100 36 0
-100 -36 0
100 123 0
-100 -123 0
9 71 0
-9 -71 0
9 40 0
-9 -40 0
9 120 0
-9 -120 0
27 41 0
-27 -41 0
27 44 0
-27 -44 0
27 46 0
-27 -46 0
32 67 0
-32 -67 0
32 47 0
-32 -47 0
32 140 0
-32 -140 0
6 40 0
-6 -40 0
6 46 0
-6 -46 0
6 90 0
-6 -90 0
38 77 0
-38 -77 0
38 138 0
-38 -138 0
38 96 0
-38 -96 0
133 4 0
-133 -4 0
133 25 0
-133 -25 0
133 11 0
-133 -11 0
69 92 0
-69 -92 0
69 23 0
-69 -23 0
69 52 0
-69 -52 0
34 79 0
-34 -79 0
34 78 0
-34 -78 0
34 94 0
-34 -94 0
17 123 0
-17 -123 0
17 128 0
-17 -128 0
17 8 0
-17 -8 0
107 140 0
-107 -140 0
107 4 0
-107 -4 0
95 39 0
-95 -39 0
95 70 0
-95 -70 0
95 68 0
-95 -68 0
98 22 0
-98 -22 0
98 103 0
-98 -103 0
98 64 0
-98 -64 0
99 138 0
-99 -138 0
99 29 0
-99 -29 0
99 48 0
-99 -48 0
59 109 0
-59 -109 0
59 64 0
-59 -64 0
59 5 0
-59 -5 0
58 56 0
-58 -56 0
58 10 0
-58 -10 0
58 3 0
-58 -3 0
132 129 0
-132 -129 0
132 8 0
-132 -8 0
132 39 0
-132 -39 0
115 62 0
-115 -62 0
115 79 0
-115 -79 0
115 130 0
-115 -130 0
127 84 0
-127 -84 0
127 54 0
-127 -54 0
26 83 0
-26 -83 0
26 22 0
-26 -22 0
26 113 0
-26 -113 0
86 102 0
-86 -102 0
86 68 0
-86 -68 0
86 67 0
-86 -67 0
49 48 0
-49 -48 0
49 24 0
-49 -24 0
118 23 0
-118 -23 0
118 109 0
-118 -109 0
42 131 0
-42 -131 0
42 21 0
-42 -21 0
42 30 0
-42 -30 0
101 120 0
-101 -120 0
101 33 0
-101 -33 0
101 129 0
-101 -129 0
7 104 0
-7 -104 0
7 92 0
-7 -92 0
85 117 0
-85 -117 0
85 36 0
-85 -36 0
114 96 0
-114 -96 0
114 91 0
-114 -91 0
114 62 0
-114 -62 0
137 54 0
-137 -54 0
137 67 0
-137 -67 0
137 19 0
-137 -19 0
57 113 0
-57 -113 0
57 89 0
-57 -89 0
57 131 0
-57 -131 0
116 31 0
-116 -31 0
116 55 0
-116 -55 0
116 90 0
-116 -90 0
18 91 0
-18 -91 0
18 11 0
-18 -11 0
18 21 0
-18 -21 0
135 88 0
-135 -88 0
135 25 0
-135 -25 0
135 39 0
-135 -39 0
61 5 0
-61 -5 0
61 84 0
-61 -84 0
61 71 0
-61 -71 0
124 24 0
-124 -24 0
124 130 0
-124 -130 0
66 103 0
-66 -103 0
66 4 0
-66 -4 0
16 89 0
-16 -89 0
16 56 0
-16 -56 0
16 14 0
-16 -14 0
1 70 0
-1 -70 0
1 48 0
-1 -48 0
28 94 0
-28 -94 0
28 83 0
-28 -83 0
28 71 0
-28 -71 0
35 52 0
-35 -52 0
35 78 0
-35 -78 0
121 3 0
-121 -3 0
121 111 0
-121 -111 0
121 31 0
-121 -31 0
119 30 0
-119 -30 0
119 109 0
-119 -109 0
65 90 0
-65 -90 0
65 73 0
-65 -73 0
65 24 0
-65 -24 0
13 68 0
-13 -68 0
13 136 0
-13 -136 0
13 22 0
-13 -22 0
63 73 0
-63 -73 0
63 23 0
-63 -23 0
63 54 0
-63 -54 0
12 20 0
-12 -20 0
12 92 0
-12 -92 0
12 89 0
-12 -89 0
60 136 0
-60 -136 0
60 104 0
-60 -104 0
60 87 0
-60 -87 0
76 130 0
-76 -130 0
76 36 0
-76 -36 0
76 56 0
-76 -56 0
75 14 0
-75 -14 0
75 96 0
-75 -96 0
75 102 0
-75 -102 0
106 78 0
-106 -78 0
106 108 0
-106 -108 0
134 8 0
-134 -8 0
134 20 0
-134 -20 0
82 55 0
-82 -55 0
82 131 0
-82 -131 0
82 139 0
-82 -139 0
37 64 0
-37 -64 0
37 62 0
-37 -62 0
105 139 0
-105 -139 0
105 117 0
-105 -117 0
105 77 0
-105 -77 0
72 33 0
-72 -33 0
72 51 0
-72 -51 0
72 47 0
-72 -47 0
122 87 0
-122 -87 0
122 123 0
-122 -123 0
122 29 0
-122 -29 0
53 21 0
-53 -21 0
53 41 0
-53 -41 0
125 25 0
-125 -25 0
125 52 0
-125 -52 0
125 77 0
-125 -77 0
93 111 0
-93 -111 0
93 104 0
-93 -104 0
97 46 0
-97 -46 0
97 88 0
-97 -88 0
97 10 0
-97 -10 0
81 128 0
-81 -128 0
81 103 0
-81 -103 0
81 31 0
-81 -31 0
110 108 0
-110 -108 0
110 3 0
-110 -3 0
110 70 0
-110 -70 0
126 29 0
-126 -29 0
126 94 0
-126 -94 0
126 41 0
-126 -41 0
65 67 0
-65 -67 0
31 88 0
-31 -88 0
16 110 0
-16 -110 0
74 14 0
-74 -14 0
51 54 0
-51 -54 0
41 73 0
-41 -73 0
26 63 0
-26 -63 0
99 65 0
-99 -65 0
80 138 0
-80 -138 0
137 22 0
-137 -22 0
7 114 0
-7 -114 0
27 66 0
-27 -66 0
125 68 0
-125 -68 0
105 128 0
-105 -128 0
92 29 0
-92 -29 0
6 98 0
-6 -98 0
84 103 0
-84 -103 0
18 31 0
-18 -31 0
27 96 0
-27 -96 0
122 19 0
-122 -19 0
27 57 0
-27 -57 0
76 53 0
-76 -53 0
92 8 0
-92 -8 0
43 81 0
-43 -81 0
77 83 0
-77 -83 0
34 35 0
-34 -35 0
16 79 0
-16 -79 0
64 108 0
-64 -108 0
69 95 0
-69 -95 0
107 137 0
-107 -137 0
43 102 0
-43 -102 0
70 90 0
-70 -90 0
135 47 0
-135 -47 0
78 55 0
-78 -55 0
60 8 0
-60 -8 0
50 114 0
-50 -114 0
115 19 0
-115 -19 0
17 94 0
-17 -94 0
97 136 0
-97 -136 0
102 96 0
-102 -96 0
106 128 0
-106 -128 0
113 25 0
-113 -25 0
11 89 0
-11 -89 0
99 81 0
-99 -81 0
71 5 0
-71 -5 0
137 131 0
-137 -131 0
4 8 0
-4 -8 0
51 130 0
-51 -130 0
119 104 0
-119 -104 0
57 4 0
-57 -4 0
6 35 0
-6 -35 0
10 79 0
-10 -79 0
11 41 0
-11 -41 0
115 90 0
-115 -90 0
51 11 0
-51 -11 0
7 82 0
-7 -82 0
51 22 0
-51 -22 0
91 24 0
-91 -24 0
107 19 0
-107 -19 0
66 93 0
-66 -93 0
133 20 0
-133 -20 0
101 77 0
-101 -77 0
61 92 0
-61 -92 0
27 19 0
-27 -19 0
57 120 0
-57 -120 0
34 114 0
-34 -114 0
104 103 0
-104 -103 0
41 48 0
-41 -48 0
118 53 0
-118 -53 0
106 90 0
-106 -90 0
66 33 0
-66 -33 0
82 102 0
-82 -102 0
100 139 0
-100 -139 0
27 97 0
-27 -97 0
122 15 0
-122 -15 0
27 93 0
-27 -93 0
65 126 0
-65 -126 0
9 97 0
-9 -97 0
2 87 0
-2 -87 0
77 56 0
-77 -56 0
26 73 0
-26 -73 0
102 24 0
-102 -24 0
44 108 0
-44 -108 0
79 84 0
-79 -84 0
127 124 0
-127 -124 0
95 51 0
-95 -51 0
9 131 0
-9 -131 0
124 125 0
-124 -125 0
137 29 0
-137 -29 0
107 101 0
-107 -101 0
112 55 0
-112 -55 0
74 21 0
-74 -21 0
50 78 0
-50 -78 0
134 90 0
-134 -90 0
115 81 0
-115 -81 0
47 20 0
-47 -20 0
47 56 0
-47 -56 0
135 90 0
-135 -90 0
12 117 0
-12 -117 0
107 66 0
-107 -66 0
90 139 0
-90 -139 0
95 118 0
-95 -118 0
99 64 0
-99 -64 0
72 128 0
-72 -128 0
52 73 0
-52 -73 0
22 104 0
-22 -104 0
6 76 0
-6 -76 0
56 89 0
-56 -89 0
45 111 0
-45 -111 0
127 77 0
-127 -77 0
11 5 0
-11 -5 0
51 10 0
-51 -10 0
107 139 0
-107 -139 0
96 64 0
-96 -64 0
65 52 0
-65 -52 0
99 73 0
-99 -73 0
93 8 0
-93 -8 0
48 96 0
-48 -96 0
124 12 0
-124 -12 0
120 96 0
-120 -96 0
43 66 0
-43 -66 0
42 20 0
-42 -20 0
18 54 0
-18 -54 0
137 75 0
-137 -75 0
86 104 0
-86 -104 0
77 96 0
-77 -96 0
120 8 0
-120 -8 0
133 12 0
-133 -12 0
99 42 0
-99 -42 0
11 25 0
-11 -25 0
51 138 0
-51 -138 0
80 19 0
-80 -19 0
34 44 0
-34 -44 0
85 83 0
-85 -83 0
86 126 0
-86 -126 0
6 62 0
-6 -62 0
16 41 0
-16 -41 0
82 56 0
-82 -56 0
105 110 0
-105 -110 0
43 124 0
-43 -124 0
69 121 0
-69 -121 0
73 130 0
-73 -130 0
118 124 0
-118 -124 0
69 48 0
-69 -48 0
98 56 0
-98 -56 0
45 20 0
-45 -20 0
37 73 0
-37 -73 0
74 113 0
-74 -113 0
116 18 0
-116 -18 0
45 42 0
-45 -42 0
17 16 0
-17 -16 0
98 19 0
-98 -19 0
114 88 0
-114 -88 0
86 105 0
-86 -105 0
130 8 0
-130 -8 0
120 104 0
-120 -104 0
50 38 0
-50 -38 0
57 68 0
-57 -68 0
76 67 0
-76 -67 0
84 104 0
-84 -104 0
127 55 0
-127 -55 0
27 128 0
-27 -128 0
102 73 0
-102 -73 0
76 19 0
-76 -19 0
51 108 0
-51 -108 0
69 94 0
-69 -94 0
53 84 0
-53 -84 0
4 23 0
-4 -23 0
114 24 0
-114 -24 0
58 42 0
-58 -42 0
42 83 0
-42 -83 0
81 129 0
-81 -129 0
72 110 0
-72 -110 0
106 97 0
-106 -97 0
6 54 0
-6 -54 0
92 128 0
-92 -128 0
80 81 0
-80 -81 0
80 9 0
-80 -9 0
124 84 0
-124 -84 0
58 60 0
-58 -60 0
48 8 0
-48 -8 0
123 131 0
-123 -131 0
19 96 0
-19 -96 0
32 22 0
-32 -22 0
2 112 0
-2 -112 0
15 90 0
-15 -90 0
17 106 0
-17 -106 0
50 80 0
-50 -80 0
127 134 0
-127 -134 0
80 91 0
-80 -91 0
53 40 0
-53 -40 0
37 11 0
-37 -11 0
32 57 0
-32 -57 0
49 1 0
-49 -1 0
47 140 0
-47 -140 0
101 28 0
-101 -28 0
43 130 0
-43 -130 0
2 35 0
-2 -35 0
74 12 0
-74 -12 0
134 125 0
-134 -125 0
115 83 0
-115 -83 0
63 87 0
-63 -87 0
16 64 0
-16 -64 0
115 3 0
-115 -3 0
124 79 0
-124 -79 0
112 24 0
-112 -24 0
63 70 0
-63 -70 0
36 109 0
-36 -109 0
85 62 0
-85 -62 0
32 117 0
-32 -117 0
65 136 0
-65 -136 0
35 46 0
-35 -46 0
4 30 0
-4 -30 0
135 131 0
-135 -131 0
103 87 0
-103 -87 0
132 121 0
-132 -121 0
27 139 0
-27 -139 0
5 89 0
-5 -89 0
18 66 0
-18 -66 0
107 53 0
-107 -53 0
72 140 0
-72 -140 0
102 33 0
-102 -33 0
138 64 0
-138 -64 0
12 77 0
-12 -77 0
43 33 0
-43 -33 0
124 33 0
-124 -33 0
12 22 0
-12 -22 0
9 34 0
-9 -34 0
2 9 0
-2 -9 0
38 139 0
-38 -139 0
100 14 0
-100 -14 0
56 55 0
-56 -55 0
20 108 0
-20 -108 0
65 134 0
-65 -134 0
122 53 0
-122 -53 0
17 3 0
-17 -3 0
60 41 0
-60 -41 0
74 34 0
-74 -34 0
60 73 0
-60 -73 0
124 119 0
-124 -119 0
112 122 0
-112 -122 0
99 123 0
-99 -123 0
120 5 0
-120 -5 0
99 125 0
-99 -125 0
1 129 0
-1 -129 0
35 12 0
-35 -12 0
115 1 0
-115 -1 0
132 85 0
-132 -85 0
22 21 0
-22 -21 0
18 76 0
-18 -76 0
13 126 0
-13 -126 0
126 89 0
-126 -89 0
52 111 0
-52 -111 0
118 22 0
-118 -22 0
98 18 0
-98 -18 0
6 116 0
-6 -116 0
32 31 0
-32 -31 0
39 64 0
-39 -64 0
101 57 0
-101 -57 0
32 75 0
-32 -75 0
105 20 0
-105 -20 0
79 54 0
-79 -54 0
114 120 0
-114 -120 0
134 70 0
-134 -70 0
61 31 0
-61 -31 0
11 84 0
-11 -84 0
129 113 0
-129 -113 0
129 33 0
-129 -33 0
54 14 0
-54 -14 0
63 108 0
-63 -108 0
43 63 0
-43 -63 0
28 4 0
-28 -4 0
81 25 0
-81 -25 0
66 44 0
-66 -44 0
27 14 0
-27 -14 0
26 51 0
-26 -51 0
85 14 0
-85 -14 0
59 11 0
-59 -11 0
95 25 0
-95 -25 0
114 131 0
-114 -131 0
60 37 0
-60 -37 0
114 81 0
-114 -81 0
96 25 0
-96 -25 0
59 19 0
-59 -19 0
115 55 0
-115 -55 0
98 59 0
-98 -59 0
42 68 0
-42 -68 0
59 104 0
-59 -104 0
138 96 0
-138 -96 0
43 79 0
-43 -79 0
81 130 0
-81 -130 0
19 87 0
-19 -87 0
23 20 0
-23 -20 0
16 54 0
-16 -54 0
134 122 0
-134 -122 0
60 130 0
-60 -130 0
83 102 0
-83 -102 0
82 97 0
-82 -97 0
50 20 0
-50 -20 0
42 120 0
-42 -120 0
35 122 0
-35 -122 0
98 101 0
-98 -101 0
137 46 0
-137 -46 0
59 79 0
-59 -79 0
34 124 0
-34 -124 0
53 23 0
-53 -23 0
2 93 0
-2 -93 0
35 62 0
-35 -62 0
97 33 0
-97 -33 0
39 94 0
-39 -94 0
1 111 0
-1 -111 0
92 103 0
-92 -103 0
137 129 0
-137 -129 0
5 8 0
-5 -8 0
89 29 0
-89 -29 0
81 41 0
-81 -41 0
53 79 0
-53 -79 0
12 68 0
-12 -68 0
23 104 0
-23 -104 0
19 5 0
-19 -5 0
6 105 0
-6 -105 0
74 96 0
-74 -96 0
127 65 0
-127 -65 0
132 25 0
-132 -25 0
105 51 0
-105 -51 0
39 131 0
-39 -131 0
85 33 0
-85 -33 0
135 1 0
-135 -1 0
35 75 0
-35 -75 0
57 121 0
-57 -121 0
60 4 0
-60 -4 0
132 10 0
-132 -10 0
11 4 0
-11 -4 0
6 122 0
-6 -122 0
26 40 0
-26 -40 0
82 54 0
-82 -54 0
5 3 0
-5 -3 0
88 64 0
-88 -64 0
4 79 0
-4 -79 0
110 83 0
-110 -83 0
113 108 0
-113 -108 0
38 21 0
-38 -21 0
78 21 0
-78 -21 0
22 25 0
-22 -25 0
97 25 0
-97 -25 0
43 49 0
-43 -49 0
38 42 0
-38 -42 0
6 72 0
-6 -72 0
118 96 0
-118 -96 0
75 128 0
-75 -128 0
124 52 0
-124 -52 0
74 133 0
-74 -133 0
57 16 0
-57 -16 0
92 73 0
-92 -73 0
113 20 0
-113 -20 0
114 33 0
-114 -33 0
38 129 0
-38 -129 0
116 72 0
-116 -72 0
100 122 0
-100 -122 0
136 108 0
-136 -108 0
67 55 0
-67 -55 0
9 76 0
-9 -76 0
2 85 0
-2 -85 0
45 113 0
-45 -113 0
15 46 0
-15 -46 0
114 11 0
-114 -11 0
138 83 0
-138 -83 0
99 41 0
-99 -41 0
133 55 0
-133 -55 0
114 125 0
-114 -125 0
45 112 0
-45 -112 0
135 108 0
-135 -108 0
135 53 0
-135 -53 0
12 52 0
-12 -52 0
76 129 0
-76 -129 0
81 8 0
-81 -8 0
122 102 0
-122 -102 0
40 104 0
-40 -104 0
80 10 0
-80 -10 0
91 108 0
-91 -108 0
138 20 0
-138 -20 0
42 19 0
-42 -19 0
71 111 0
-71 -111 0
26 48 0
-26 -48 0
35 97 0
-35 -97 0
2 94 0
-2 -94 0
99 23 0
-99 -23 0
61 134 0
-61 -134 0
119 55 0
-119 -55 0
69 122 0
-69 -122 0
97 96 0
-97 -96 0
13 89 0
-13 -89 0
86 14 0
-86 -14 0
1 30 0
-1 -30 0
115 122 0
-115 -122 0
132 33 0
-132 -33 0
103 33 0
-103 -33 0
100 98 0
-100 -98 0
45 139 0
-45 -139 0
80 130 0
-80 -130 0
58 66 0
-58 -66 0
43 28 0
-43 -28 0
135 11 0
-135 -11 0
112 15 0
-112 -15 0
2 126 0
-2 -126 0
112 52 0
-112 -52 0
74 77 0
-74 -77 0
80 100 0
-80 -100 0
131 103 0
-131 -103 0
49 13 0
-49 -13 0
63 136 0
-63 -136 0
117 64 0
-117 -64 0
2 5 0
-2 -5 0
57 71 0
-57 -71 0
13 4 0
-13 -4 0
122 67 0
-122 -67 0
49 54 0
-49 -54 0
16 97 0
-16 -97 0
38 5 0
-38 -5 0
116 25 0
-116 -25 0
117 94 0
-117 -94 0
69 26 0
-69 -26 0
7 75 0
-7 -75 0
40 4 0
-40 -4 0
3 30 0
-3 -30 0
56 94 0
-56 -94 0
123 23 0
-123 -23 0
133 103 0
-133 -103 0
75 40 0
-75 -40 0
74 27 0
-74 -27 0
123 20 0
-123 -20 0
65 51 0
-65 -51 0
19 131 0
-19 -131 0
115 109 0
-115 -109 0
105 14 0
-105 -14 0
137 124 0
-137 -124 0
27 132 0
-27 -132 0
133 101 0
-133 -101 0
7 97 0
-7 -97 0
40 73 0
-40 -73 0
100 113 0
-100 -113 0
